MP POSCAR: Mg4 O4
1.0
4.256483 0.000000 0.000000
0.000000 4.256483 0.000000
0.000000 0.000000 4.256483
Mg O
4 4
Selective dynamics
direct
0.000000 0.000000 0.000000 T T T Mg
0.000000 0.500000 0.500000 T T T Mg
0.500000 0.000000 0.500000 T T T Mg
0.500000 0.500000 0.000000 T T T Mg
0.500000 0.000000 0.000000 T T T O
0.500000 0.500000 0.500000 T T T O
0.000000 0.000000 0.500000 T T T O
0.000000 0.500000 0.000000 T T T O
