MP POSCAR: Si8
1.0
5.468728 0.000000 0.000000
0.000000 5.468728 0.000000
0.000000 0.000000 5.468728
Si
8
Selective dynamics
direct
0.750000 0.750000 0.750000 T T T Si
0.500000 0.000000 0.000000 T T T Si
0.750000 0.250000 0.250000 T T T Si
0.500000 0.500000 0.500000 T T T Si
0.250000 0.750000 0.250000 T T T Si
0.000000 0.000000 0.500000 T T T Si
0.250000 0.250000 0.750000 T T T Si
0.000000 0.500000 0.000000 T T T Si
