MP POSCAR:
1.0
3.787417 0.000000 2.186666
1.262472 3.570811 2.186666
0.000000 0.000000 4.373333
Zn Te
1 1
direct
0.000000 0.000000 0.000000 Zn
0.250000 0.250000 0.250000 Te
