Ge8                                     
   1.00000000000000     
     5.7628630000000003    0.0000000000000000    0.0000000000000000
     0.0000000000000000    5.7628630000000003    0.0000000000000000
     0.0000000000000000    0.0000000000000000    5.7628630000000003
   Ge
     8
Selective dynamics
Direct
  0.7500000000000000  0.7500000000000000  0.7500000000000000   T   T   T
  0.5000000000000000  0.0000000000000000  0.0000000000000000   T   T   T
  0.7500000000000000  0.2500000000000000  0.2500000000000000   T   T   T
  0.5000000000000000  0.5000000000000000  0.5000000000000000   T   T   T
  0.2500000000000000  0.7500000000000000  0.2500000000000000   T   T   T
  0.0000000000000000  0.0000000000000000  0.5000000000000000   T   T   T
  0.2500000000000000  0.2500000000000000  0.7500000000000000   T   T   T
  0.0000000000000000  0.5000000000000000  0.0000000000000000   T   T   T
 
  0.00000000E+00  0.00000000E+00  0.00000000E+00
  0.00000000E+00  0.00000000E+00  0.00000000E+00
  0.00000000E+00  0.00000000E+00  0.00000000E+00
  0.00000000E+00  0.00000000E+00  0.00000000E+00
  0.00000000E+00  0.00000000E+00  0.00000000E+00
  0.00000000E+00  0.00000000E+00  0.00000000E+00
  0.00000000E+00  0.00000000E+00  0.00000000E+00
  0.00000000E+00  0.00000000E+00  0.00000000E+00
