Automatic kpoint scheme
0
Monkhorst
15 15 15
