Title: Ti2CO2 (fcc) MXene vacency study, supercell 221 (no defect)
0
Gamma   # recommended for hexagonal symm
11 11 11
0 0 0

