MP POSCAR:                              
   1.00000000000000     
    -1.8106310000000001   -1.8106310000000001    0.0000000000000000
    -1.8106310000000001    0.0000000000000000   -1.8106310000000001
     0.0000000000000000   -1.8106310000000001   -1.8106310000000001
   Cu
     1
Direct
  0.0000000000000000  0.0000000000000000  0.0000000000000000
 
  0.00000000E+00  0.00000000E+00  0.00000000E+00
