k-points : CUBIC - FCC 
40
Line Mode
Rec
0.00 0.00 0.00 ! Gamma
0.00 0.50 0.50 ! X

0.00 0.50 0.50 ! X
0.25 0.75 0.50 ! W

0.25 0.75 0.50 ! W
0.375 0.75 0.375 ! K

0.375 0.75 0.375 ! K
0.00 0.00 0.00 ! Gamma

0.00 0.00 0.00 ! Gamma
0.50 0.50 0.50 ! L 

0.50 0.50 0.50 ! L
0.25 0.625 0.625 ! U

0.25 0.625 0.625 ! U
0.25 0.75 0.50 ! W

0.25 0.75 0.50 ! W
0.50 0.50 0.50 ! L



