MP POSCAR:                              
   1.00000000000000     
     3.7874170000000000    0.0000000000000000    2.1866660000000002
     1.2624720000000000    3.5708110000000000    2.1866660000000002
     0.0000000000000000    0.0000000000000000    4.3733329999999997
   Zn   Te
     1     1
Direct
  0.0000000000000000  0.0000000000000000  0.0000000000000000
  0.2500000000000000  0.2500000000000000  0.2500000000000000
 
  0.00000000E+00  0.00000000E+00  0.00000000E+00
  0.00000000E+00  0.00000000E+00  0.00000000E+00
