Ge8
1.0
5.762863 0.000000 0.000000
0.000000 5.762863 0.000000
0.000000 0.000000 5.762863
Ge
8
Selective dynamics
direct
0.750000 0.750000 0.750000 T T T Ge
0.500000 0.000000 0.000000 T T T Ge
0.750000 0.250000 0.250000 T T T Ge
0.500000 0.500000 0.500000 T T T Ge
0.250000 0.750000 0.250000 T T T Ge
0.000000 0.000000 0.500000 T T T Ge
0.250000 0.250000 0.750000 T T T Ge
0.000000 0.500000 0.000000 T T T Ge
