Automatic kpoint scheme
0
Monkhorst
18 18 18
