MP POSCAR: Hexagonal-MoS2 Bulk 
1.0
1.595158 -2.762894 0.000000
1.595158 2.762894 0.000000
0.000000 0.000000 14.879004
Mo S
2 4
direct
0.666667 0.333333 0.750000 Mo
0.333333 0.666667 0.250000 Mo
0.333333 0.666667 0.855174 S
0.666667 0.333333 0.355174 S
0.333333 0.666667 0.644826 S
0.666667 0.333333 0.144826 S
