2D Hexagonal MoS2
1.0
3.190316 0.000000 0.000000
-1.595158 2.762895 0.000000
0.000000 0.000000 14.879004
Mo S
1 2
direct
0.333330 0.666670 0.500000 Mo
0.666670 0.333330 0.605174 S
0.666660 0.333330 0.394826 S
