crystal under applied strain
1.0
4.119709 0.000000 0.000000
0.000000 4.119709 0.000000
0.000000 0.000000 4.119709
Al
4
Selective dynamics
direct
0.000000 0.000000 0.000000 T T T Al
0.000000 0.500000 0.500000 T T T Al
0.500000 0.000000 0.500000 T T T Al
0.500000 0.500000 0.000000 T T T Al
