Al4
1.0
3.635037 0.000000 0.000000
0.000000 3.635037 0.000000
0.000000 0.000000 3.635037
Al
4
direct
0.000000 0.000000 0.000000 Al
0.000000 0.500000 0.500000 Al
0.500000 0.000000 0.500000 Al
0.500000 0.500000 0.000000 Al
