MP POSCAR: Al4
1.0
4.038930 0.000000 0.000000
0.000000 4.038930 0.000000
0.000000 0.000000 4.038930
Al
4
Selective dynamics
direct
0.000000 0.000000 0.000000 T T T Al
0.000000 0.500000 0.500000 T T T Al
0.500000 0.000000 0.500000 T T T Al
0.500000 0.500000 0.000000 T T T Al
