EDIFF = 1e-06
EDIFFG = -0.02
ENCUT = 500
IBRION = 2
ISIF = 3
ISMEAR = 1
ISPIN = 1
ISYM = 1
LCHARG = False
LREAL = Auto
LWAVE = False
NPAR = 4
NSW = 300
PREC = Accurate
SIGMA = 0.1
