MP POSCAR: Ge8
1.0
5.762863 0.000000 0.000000
0.000000 5.762863 0.000000
0.000000 0.000000 5.762863
Ga
8
direct
0.750000 0.750000 0.750000 Ga
0.500000 0.000000 0.000000 Ga
0.750000 0.250000 0.250000 Ga
0.500000 0.500000 0.500000 Ga
0.250000 0.750000 0.250000 Ga
0.000000 0.000000 0.500000 Ga
0.250000 0.250000 0.750000 Ga
0.000000 0.500000 0.000000 Ga
