ALGO = Fast
ENCUT = 600
IBRION = -1
ISMEAR = 0
ISPIN = 1
ISYM = 1
LCHARG = False
LWAVE = False
NSW = 0
PREC = Normal
SIGMA = 0.2
